Version identifier: 20.1.0.0 | 2020-11-10 | 9bedb6d68
Tried aggregator 3 times.
MIP Presolve eliminated 2008 rows and 1022 columns.
MIP Presolve modified 4704 coefficients.
Aggregator did 183 substitutions.
Reduced MIP has 2618 rows, 2110 columns, and 8552 nonzeros.
Reduced MIP has 390 binaries, 1720 generals, 0 SOSs, and 0 indicators.
Presolve time = 0.03 sec. (12.89 ticks)
Found incumbent of value 4075.000000 after 0.05 sec. (23.63 ticks)
Probing fixed 56 vars, tightened 704 bounds.
Probing time = 0.00 sec. (2.04 ticks)
Tried aggregator 2 times.
MIP Presolve eliminated 1076 rows and 198 columns.
MIP Presolve modified 325 coefficients.
Aggregator did 74 substitutions.
Reduced MIP has 1468 rows, 1838 columns, and 4738 nonzeros.
Reduced MIP has 538 binaries, 1300 generals, 0 SOSs, and 0 indicators.
Presolve time = 0.01 sec. (6.02 ticks)
Probing time = 0.00 sec. (0.46 ticks)
Tried aggregator 1 time.
Detecting symmetries...
MIP Presolve modified 529 coefficients.
Reduced MIP has 1468 rows, 1838 columns, and 4738 nonzeros.
Reduced MIP has 538 binaries, 1300 generals, 0 SOSs, and 0 indicators.
Presolve time = 0.01 sec. (3.69 ticks)
Probing time = 0.00 sec. (0.42 ticks)
Clique table members: 31.
MIP emphasis: balance optimality and feasibility.
MIP search method: dynamic search.
Parallel mode: deterministic, using up to 24 threads.
Root relaxation solution time = 0.01 sec. (5.40 ticks)

        Nodes                                         Cuts/
   Node  Left     Objective  IInf  Best Integer    Best Bound    ItCnt     Gap

*     0+    0                         4075.0000        0.0000           100.00%
      0     0        0.0000    73     4075.0000        0.0000      490  100.00%
      0     0        0.0000   119     4075.0000     Cuts: 203      678  100.00%
*     0+    0                           23.0000        0.0000           100.00%
      0     0        0.0476   226       23.0000      Cuts: 90      928   99.29%
      0     0        0.2941   339       23.0000     Cuts: 163     1203   98.72%
      0     0        0.6008   458       23.0000     Cuts: 123     1632   97.39%
      0     0        0.6027   490       23.0000      Cuts: 92     1787   97.38%
      0     0        1.0306   465       23.0000      Cuts: 89     2120   95.52%
      0     0        1.0409   515       23.0000     Cuts: 161     2321   95.47%
*     0+    0                           22.0000        1.0409            95.27%
      0     0        cutoff             22.0000       22.0000     2499    0.00%
Elapsed time = 0.88 sec. (215.82 ticks, tree = 0.01 MB, solutions = 3)

Cover cuts applied:  1
Implied bound cuts applied:  49
Flow cuts applied:  20
Mixed integer rounding cuts applied:  67
Zero-half cuts applied:  204
Lift and project cuts applied:  6
Gomory fractional cuts applied:  9

Root node processing (before b&c):
  Real time             =    0.88 sec. (215.99 ticks)
Parallel b&c, 24 threads:
  Real time             =    0.00 sec. (0.00 ticks)
  Sync time (average)   =    0.00 sec.
  Wait time (average)   =    0.00 sec.
                          ------------
Total (root+branch&cut) =    0.88 sec. (215.99 ticks)

Solution status = Optimal
Solution LB = 22
Solution UB = 22
Runtime = 0.883405 seconds
	Command being timed: "/home/min/git_repos/CS598MEBProject/CNT-ILP/build/cnt -s 2 ./output/k8_n30/simC_c1_k8_n30_u3_s2_del04.input-right.cnp"
	User time (seconds): 11.74
	System time (seconds): 0.11
	Percent of CPU this job got: 1268%
	Elapsed (wall clock) time (h:mm:ss or m:ss): 0:00.93
	Average shared text size (kbytes): 0
	Average unshared data size (kbytes): 0
	Average stack size (kbytes): 0
	Average total size (kbytes): 0
	Maximum resident set size (kbytes): 128636
	Average resident set size (kbytes): 0
	Major (requiring I/O) page faults: 0
	Minor (reclaiming a frame) page faults: 30526
	Voluntary context switches: 5771
	Involuntary context switches: 1594
	Swaps: 0
	File system inputs: 0
	File system outputs: 16
	Socket messages sent: 0
	Socket messages received: 0
	Signals delivered: 0
	Page size (bytes): 4096
	Exit status: 0
